NAME : rnd37_50.tsp
TYPE : TSP
DIMENSION : 50
EDGE_WEIGHT_TYPE : EUC_2D
NODE_COORD_SECTION
1 992 578
2 280 892
3 493 36
4 303 892
5 840 43
6 288 393
7 916 289
8 808 217
9 880 996
10 487 782
11 646 274
12 601 213
13 389 713
14 588 597
15 653 789
16 187 559
17 664 554
18 789 996
19 216 539
20 402 672
21 269 903
22 420 943
23 814 184
24 319 606
25 758 932
26 234 5
27 967 417
28 165 198
29 85 664
30 214 402
31 318 767
32 367 717
33 411 61
34 474 548
35 307 639
36 322 231
37 833 121
38 421 251
39 651 135
40 143 412
41 271 206
42 521 823
43 909 386
44 998 91
45 151 963
46 276 357
47 965 440
48 508 603
49 997 251
50 328 59
